FourierSAT_Github_AIJ/benchmarks/MAXSAT_benchmarks/3/bipartite/maxcut-140-630-0.8/maxcut-140-630-0.8-5.cnf
c strEdges: 125  randomEdges: 504 
c degrees:  1  2 
c girth: Inf max: -43.604516  
c Hgirth mixed MAXCUT instance
c generated from an undirected graph
c to solve unweighted MaxCut
p cnf 140 1258
14 53 0
-14 -53 0
14 93 0
-14 -93 0
112 46 0
-112 -46 0
112 66 0
-112 -66 0
86 101 0
-86 -101 0
88 39 0
-88 -39 0
88 18 0
-88 -18 0
90 72 0
-90 -72 0
118 38 0
-118 -38 0
3 40 0
-3 -40 0
3 60 0
-3 -60 0
35 108 0
-35 -108 0
35 91 0
-35 -91 0
132 100 0
-132 -100 0
132 136 0
-132 -136 0
54 73 0
-54 -73 0
109 62 0
-109 -62 0
109 19 0
-109 -19 0
103 37 0
-103 -37 0
103 30 0
-103 -30 0
34 74 0
-34 -74 0
115 116 0
-115 -116 0
115 23 0
-115 -23 0
129 4 0
-129 -4 0
129 42 0
-129 -42 0
106 1 0
-106 -1 0
106 29 0
-106 -29 0
15 63 0
-15 -63 0
15 46 0
-15 -46 0
7 75 0
-7 -75 0
7 11 0
-7 -11 0
120 55 0
-120 -55 0
120 72 0
-120 -72 0
135 104 0
-135 -104 0
135 33 0
-135 -33 0
95 23 0
-95 -23 0
114 13 0
-114 -13 0
114 94 0
-114 -94 0
83 26 0
-83 -26 0
83 55 0
-83 -55 0
70 24 0
-70 -24 0
70 100 0
-70 -100 0
48 93 0
-48 -93 0
79 66 0
-79 -66 0
79 53 0
-79 -53 0
80 52 0
-80 -52 0
125 47 0
-125 -47 0
125 39 0
-125 -39 0
99 122 0
-99 -122 0
124 36 0
-124 -36 0
124 104 0
-124 -104 0
105 131 0
-105 -131 0
57 2 0
-57 -2 0
57 126 0
-57 -126 0
22 81 0
-22 -81 0
22 116 0
-22 -116 0
17 27 0
-17 -27 0
17 50 0
-17 -50 0
12 140 0
-12 -140 0
12 81 0
-12 -81 0
49 11 0
-49 -11 0
49 13 0
-49 -13 0
133 33 0
-133 -33 0
71 50 0
-71 -50 0
71 108 0
-71 -108 0
69 91 0
-69 -91 0
69 140 0
-69 -140 0
128 32 0
-128 -32 0
128 73 0
-128 -73 0
117 30 0
-117 -30 0
87 5 0
-87 -5 0
87 27 0
-87 -27 0
98 19 0
-98 -19 0
98 38 0
-98 -38 0
43 28 0
-43 -28 0
43 52 0
-43 -52 0
107 58 0
-107 -58 0
107 47 0
-107 -47 0
16 111 0
-16 -111 0
16 65 0
-16 -65 0
110 42 0
-110 -42 0
89 92 0
-89 -92 0
89 111 0
-89 -111 0
6 60 0
-6 -60 0
6 92 0
-6 -92 0
41 76 0
-41 -76 0
41 26 0
-41 -26 0
8 29 0
-8 -29 0
8 75 0
-8 -75 0
25 119 0
-25 -119 0
25 134 0
-25 -134 0
97 10 0
-97 -10 0
97 113 0
-97 -113 0
96 134 0
-96 -134 0
96 37 0
-96 -37 0
68 94 0
-68 -94 0
68 122 0
-68 -122 0
64 136 0
-64 -136 0
64 127 0
-64 -127 0
139 138 0
-139 -138 0
139 76 0
-139 -76 0
121 31 0
-121 -31 0
121 2 0
-121 -2 0
84 45 0
-84 -45 0
84 102 0
-84 -102 0
137 102 0
-137 -102 0
137 28 0
-137 -28 0
61 130 0
-61 -130 0
82 127 0
-82 -127 0
82 32 0
-82 -32 0
9 85 0
-9 -85 0
9 119 0
-9 -119 0
67 126 0
-67 -126 0
67 20 0
-67 -20 0
51 65 0
-51 -65 0
51 31 0
-51 -31 0
56 123 0
-56 -123 0
56 21 0
-56 -21 0
78 21 0
-78 -21 0
78 36 0
-78 -36 0
59 18 0
-59 -18 0
59 138 0
-59 -138 0
44 113 0
-44 -113 0
77 20 0
-77 -20 0
77 24 0
-77 -24 0
51 44 0
-51 -44 0
67 65 0
-67 -65 0
129 39 0
-129 -39 0
88 9 0
-88 -9 0
82 28 0
-82 -28 0
7 72 0
-7 -72 0
19 45 0
-19 -45 0
117 104 0
-117 -104 0
13 24 0
-13 -24 0
16 5 0
-16 -5 0
3 84 0
-3 -84 0
17 122 0
-17 -122 0
22 36 0
-22 -36 0
7 31 0
-7 -31 0
109 24 0
-109 -24 0
6 104 0
-6 -104 0
73 47 0
-73 -47 0
52 119 0
-52 -119 0
103 22 0
-103 -22 0
56 46 0
-56 -46 0
71 23 0
-71 -23 0
47 113 0
-47 -113 0
39 91 0
-39 -91 0
86 85 0
-86 -85 0
125 87 0
-125 -87 0
14 66 0
-14 -66 0
96 78 0
-96 -78 0
50 28 0
-50 -28 0
6 100 0
-6 -100 0
3 131 0
-3 -131 0
133 36 0
-133 -36 0
57 17 0
-57 -17 0
56 27 0
-56 -27 0
139 53 0
-139 -53 0
54 97 0
-54 -97 0
90 97 0
-90 -97 0
62 94 0
-62 -94 0
79 138 0
-79 -138 0
62 92 0
-62 -92 0
11 136 0
-11 -136 0
69 41 0
-69 -41 0
45 102 0
-45 -102 0
99 121 0
-99 -121 0
49 44 0
-49 -44 0
6 20 0
-6 -20 0
119 134 0
-119 -134 0
30 134 0
-30 -134 0
34 16 0
-34 -16 0
3 91 0
-3 -91 0
135 13 0
-135 -13 0
47 11 0
-47 -11 0
137 77 0
-137 -77 0
86 17 0
-86 -17 0
98 75 0
-98 -75 0
87 10 0
-87 -10 0
61 136 0
-61 -136 0
120 80 0
-120 -80 0
34 13 0
-34 -13 0
46 91 0
-46 -91 0
32 136 0
-32 -136 0
90 115 0
-90 -115 0
118 67 0
-118 -67 0
54 43 0
-54 -43 0
83 20 0
-83 -20 0
117 9 0
-117 -9 0
72 40 0
-72 -40 0
53 102 0
-53 -102 0
125 53 0
-125 -53 0
9 113 0
-9 -113 0
54 89 0
-54 -89 0
104 36 0
-104 -36 0
73 131 0
-73 -131 0
114 70 0
-114 -70 0
31 21 0
-31 -21 0
4 50 0
-4 -50 0
33 32 0
-33 -32 0
6 45 0
-6 -45 0
22 136 0
-22 -136 0
127 123 0
-127 -123 0
101 131 0
-101 -131 0
129 37 0
-129 -37 0
16 32 0
-16 -32 0
49 87 0
-49 -87 0
128 117 0
-128 -117 0
14 99 0
-14 -99 0
48 26 0
-48 -26 0
55 123 0
-55 -123 0
12 20 0
-12 -20 0
83 81 0
-83 -81 0
55 19 0
-55 -19 0
82 65 0
-82 -65 0
54 103 0
-54 -103 0
98 32 0
-98 -32 0
87 97 0
-87 -97 0
3 82 0
-3 -82 0
32 45 0
-32 -45 0
90 95 0
-90 -95 0
5 130 0
-5 -130 0
67 108 0
-67 -108 0
97 77 0
-97 -77 0
49 43 0
-49 -43 0
118 87 0
-118 -87 0
86 26 0
-86 -26 0
26 93 0
-26 -93 0
48 111 0
-48 -111 0
64 1 0
-64 -1 0
54 92 0
-54 -92 0
8 73 0
-8 -73 0
106 139 0
-106 -139 0
114 128 0
-114 -128 0
87 8 0
-87 -8 0
82 4 0
-82 -4 0
118 50 0
-118 -50 0
70 121 0
-70 -121 0
90 4 0
-90 -4 0
3 113 0
-3 -113 0
12 117 0
-12 -117 0
90 127 0
-90 -127 0
39 104 0
-39 -104 0
4 131 0
-4 -131 0
43 21 0
-43 -21 0
74 113 0
-74 -113 0
67 29 0
-67 -29 0
54 39 0
-54 -39 0
132 117 0
-132 -117 0
70 63 0
-70 -63 0
29 136 0
-29 -136 0
90 55 0
-90 -55 0
79 13 0
-79 -13 0
80 16 0
-80 -16 0
39 62 0
-39 -62 0
37 116 0
-37 -116 0
64 67 0
-64 -67 0
133 51 0
-133 -51 0
101 5 0
-101 -5 0
83 105 0
-83 -105 0
117 140 0
-117 -140 0
68 56 0
-68 -56 0
40 74 0
-40 -74 0
125 16 0
-125 -16 0
112 90 0
-112 -90 0
99 75 0
-99 -75 0
96 126 0
-96 -126 0
54 48 0
-54 -48 0
49 110 0
-49 -110 0
115 39 0
-115 -39 0
87 25 0
-87 -25 0
96 61 0
-96 -61 0
17 51 0
-17 -51 0
69 63 0
-69 -63 0
124 61 0
-124 -61 0
133 8 0
-133 -8 0
22 93 0
-22 -93 0
15 67 0
-15 -67 0
64 76 0
-64 -76 0
2 42 0
-2 -42 0
124 72 0
-124 -72 0
61 21 0
-61 -21 0
21 18 0
-21 -18 0
60 45 0
-60 -45 0
54 82 0
-54 -82 0
62 13 0
-62 -13 0
4 19 0
-4 -19 0
106 52 0
-106 -52 0
107 56 0
-107 -56 0
109 8 0
-109 -8 0
6 31 0
-6 -31 0
6 116 0
-6 -116 0
66 58 0
-66 -58 0
64 101 0
-64 -101 0
78 123 0
-78 -123 0
41 44 0
-41 -44 0
108 91 0
-108 -91 0
137 122 0
-137 -122 0
115 77 0
-115 -77 0
57 16 0
-57 -16 0
106 120 0
-106 -120 0
53 116 0
-53 -116 0
36 5 0
-36 -5 0
90 73 0
-90 -73 0
121 53 0
-121 -53 0
38 62 0
-38 -62 0
84 66 0
-84 -66 0
79 124 0
-79 -124 0
103 16 0
-103 -16 0
71 18 0
-71 -18 0
46 92 0
-46 -92 0
66 28 0
-66 -28 0
48 66 0
-48 -66 0
7 20 0
-7 -20 0
41 136 0
-41 -136 0
14 135 0
-14 -135 0
71 77 0
-71 -77 0
6 122 0
-6 -122 0
26 36 0
-26 -36 0
43 24 0
-43 -24 0
2 134 0
-2 -134 0
88 62 0
-88 -62 0
41 59 0
-41 -59 0
89 93 0
-89 -93 0
125 42 0
-125 -42 0
108 73 0
-108 -73 0
101 130 0
-101 -130 0
49 84 0
-49 -84 0
120 66 0
-120 -66 0
16 44 0
-16 -44 0
124 127 0
-124 -127 0
83 56 0
-83 -56 0
84 18 0
-84 -18 0
103 32 0
-103 -32 0
69 101 0
-69 -101 0
69 65 0
-69 -65 0
86 30 0
-86 -30 0
108 81 0
-108 -81 0
112 33 0
-112 -33 0
129 97 0
-129 -97 0
64 40 0
-64 -40 0
105 41 0
-105 -41 0
24 2 0
-24 -2 0
118 125 0
-118 -125 0
13 50 0
-13 -50 0
87 100 0
-87 -100 0
62 50 0
-62 -50 0
68 113 0
-68 -113 0
63 42 0
-63 -42 0
44 122 0
-44 -122 0
64 122 0
-64 -122 0
98 131 0
-98 -131 0
111 94 0
-111 -94 0
59 47 0
-59 -47 0
15 42 0
-15 -42 0
15 133 0
-15 -133 0
104 122 0
-104 -122 0
112 49 0
-112 -49 0
120 29 0
-120 -29 0
78 55 0
-78 -55 0
83 19 0
-83 -19 0
71 33 0
-71 -33 0
86 7 0
-86 -7 0
52 81 0
-52 -81 0
112 36 0
-112 -36 0
79 67 0
-79 -67 0
111 134 0
-111 -134 0
11 85 0
-11 -85 0
56 38 0
-56 -38 0
139 40 0
-139 -40 0
15 13 0
-15 -13 0
14 138 0
-14 -138 0
42 127 0
-42 -127 0
43 91 0
-43 -91 0
103 100 0
-103 -100 0
96 85 0
-96 -85 0
106 108 0
-106 -108 0
136 127 0
-136 -127 0
78 59 0
-78 -59 0
74 50 0
-74 -50 0
105 117 0
-105 -117 0
39 138 0
-39 -138 0
88 106 0
-88 -106 0
28 20 0
-28 -20 0
135 19 0
-135 -19 0
87 23 0
-87 -23 0
61 131 0
-61 -131 0
1 66 0
-1 -66 0
103 98 0
-103 -98 0
3 97 0
-3 -97 0
7 105 0
-7 -105 0
90 7 0
-90 -7 0
14 98 0
-14 -98 0
54 74 0
-54 -74 0
118 6 0
-118 -6 0
73 55 0
-73 -55 0
24 138 0
-24 -138 0
88 73 0
-88 -73 0
48 43 0
-48 -43 0
89 19 0
-89 -19 0
84 123 0
-84 -123 0
83 40 0
-83 -40 0
57 29 0
-57 -29 0
89 130 0
-89 -130 0
89 68 0
-89 -68 0
125 12 0
-125 -12 0
86 60 0
-86 -60 0
11 94 0
-11 -94 0
54 76 0
-54 -76 0
86 124 0
-86 -124 0
140 113 0
-140 -113 0
82 78 0
-82 -78 0
109 51 0
-109 -51 0
22 8 0
-22 -8 0
69 16 0
-69 -16 0
129 23 0
-129 -23 0
52 131 0
-52 -131 0
43 58 0
-43 -58 0
25 113 0
-25 -113 0
139 102 0
-139 -102 0
120 23 0
-120 -23 0
82 36 0
-82 -36 0
129 49 0
-129 -49 0
125 127 0
-125 -127 0
8 38 0
-8 -38 0
32 102 0
-32 -102 0
75 21 0
-75 -21 0
129 40 0
-129 -40 0
52 36 0
-52 -36 0
118 1 0
-118 -1 0
17 38 0
-17 -38 0
69 92 0
-69 -92 0
23 119 0
-23 -119 0
54 11 0
-54 -11 0
130 18 0
-130 -18 0
139 63 0
-139 -63 0
134 31 0
-134 -31 0
25 93 0
-25 -93 0
98 89 0
-98 -89 0
14 10 0
-14 -10 0
50 130 0
-50 -130 0
101 10 0
-101 -10 0
75 113 0
-75 -113 0
129 104 0
-129 -104 0
59 63 0
-59 -63 0
48 19 0
-48 -19 0
112 83 0
-112 -83 0
43 65 0
-43 -65 0
23 92 0
-23 -92 0
115 89 0
-115 -89 0
49 89 0
-49 -89 0
128 136 0
-128 -136 0
27 60 0
-27 -60 0
115 107 0
-115 -107 0
114 61 0
-114 -61 0
97 50 0
-97 -50 0
107 72 0
-107 -72 0
62 19 0
-62 -19 0
3 81 0
-3 -81 0
128 50 0
-128 -50 0
101 65 0
-101 -65 0
121 11 0
-121 -11 0
79 32 0
-79 -32 0
114 137 0
-114 -137 0
3 9 0
-3 -9 0
90 113 0
-90 -113 0
115 84 0
-115 -84 0
27 76 0
-27 -76 0
113 20 0
-113 -20 0
121 20 0
-121 -20 0
109 45 0
-109 -45 0
53 23 0
-53 -23 0
135 96 0
-135 -96 0
46 36 0
-46 -36 0
22 20 0
-22 -20 0
49 66 0
-49 -66 0
100 52 0
-100 -52 0
2 92 0
-2 -92 0
100 116 0
-100 -116 0
3 104 0
-3 -104 0
125 73 0
-125 -73 0
81 30 0
-81 -30 0
124 91 0
-124 -91 0
64 91 0
-64 -91 0
118 113 0
-118 -113 0
129 139 0
-129 -139 0
125 55 0
-125 -55 0
35 42 0
-35 -42 0
7 42 0
-7 -42 0
74 65 0
-74 -65 0
48 20 0
-48 -20 0
54 66 0
-54 -66 0
58 45 0
-58 -45 0
80 69 0
-80 -69 0
38 63 0
-38 -63 0
131 130 0
-131 -130 0
101 75 0
-101 -75 0
39 10 0
-39 -10 0
104 93 0
-104 -93 0
118 126 0
-118 -126 0
43 30 0
-43 -30 0
61 58 0
-61 -58 0
25 1 0
-25 -1 0
17 59 0
-17 -59 0
4 140 0
-4 -140 0
34 21 0
-34 -21 0
86 139 0
-86 -139 0
95 12 0
-95 -12 0
131 21 0
-131 -21 0
57 1 0
-57 -1 0
61 10 0
-61 -10 0
118 47 0
-118 -47 0
3 11 0
-3 -11 0
97 81 0
-97 -81 0
59 46 0
-59 -46 0
101 94 0
-101 -94 0
11 5 0
-11 -5 0
105 30 0
-105 -30 0
124 93 0
-124 -93 0
5 45 0
-5 -45 0
26 19 0
-26 -19 0
93 60 0
-93 -60 0
46 136 0
-46 -136 0
6 50 0
-6 -50 0
43 116 0
-43 -116 0
35 80 0
-35 -80 0
98 59 0
-98 -59 0
100 76 0
-100 -76 0
17 29 0
-17 -29 0
110 122 0
-110 -122 0
35 126 0
-35 -126 0
78 38 0
-78 -38 0
86 109 0
-86 -109 0
68 50 0
-68 -50 0
26 102 0
-26 -102 0
64 138 0
-64 -138 0
66 111 0
-66 -111 0
120 36 0
-120 -36 0
118 100 0
-118 -100 0
105 5 0
-105 -5 0
79 69 0
-79 -69 0
83 122 0
-83 -122 0
137 74 0
-137 -74 0
1 29 0
-1 -29 0
95 107 0
-95 -107 0
69 87 0
-69 -87 0
12 55 0
-12 -55 0
137 123 0
-137 -123 0
78 5 0
-78 -5 0
115 9 0
-115 -9 0
106 56 0
-106 -56 0
35 129 0
-35 -129 0
27 65 0
-27 -65 0
86 79 0
-86 -79 0
129 137 0
-129 -137 0
95 46 0
-95 -46 0
86 21 0
-86 -21 0
129 100 0
-129 -100 0
98 110 0
-98 -110 0
53 63 0
-53 -63 0
49 52 0
-49 -52 0
88 48 0
-88 -48 0
46 85 0
-46 -85 0
15 94 0
-15 -94 0
27 94 0
-27 -94 0
13 47 0
-13 -47 0
107 119 0
-107 -119 0
70 105 0
-70 -105 0
133 71 0
-133 -71 0
63 50 0
-63 -50 0
129 135 0
-129 -135 0
39 27 0
-39 -27 0
35 105 0
-35 -105 0
48 92 0
-48 -92 0
60 76 0
-60 -76 0
8 60 0
-8 -60 0
8 65 0
-8 -65 0
109 80 0
-109 -80 0
128 140 0
-128 -140 0
117 10 0
-117 -10 0
79 81 0
-79 -81 0
58 60 0
-58 -60 0
22 130 0
-22 -130 0
96 92 0
-96 -92 0
11 18 0
-11 -18 0
103 7 0
-103 -7 0
54 38 0
-54 -38 0
39 130 0
-39 -130 0
97 92 0
-97 -92 0
61 38 0
-61 -38 0
34 70 0
-34 -70 0
60 94 0
-60 -94 0
103 124 0
-103 -124 0
89 138 0
-89 -138 0
96 21 0
-96 -21 0
97 94 0
-97 -94 0
44 37 0
-44 -37 0
139 33 0
-139 -33 0
117 94 0
-117 -94 0
99 76 0
-99 -76 0
16 8 0
-16 -8 0
57 91 0
-57 -91 0
25 19 0
-25 -19 0
111 20 0
-111 -20 0
132 109 0
-132 -109 0
77 136 0
-77 -136 0
67 38 0
-67 -38 0
37 26 0
-37 -26 0
7 97 0
-7 -97 0
22 27 0
-22 -27 0
139 1 0
-139 -1 0
49 38 0
-49 -38 0
34 29 0
-34 -29 0
83 77 0
-83 -77 0
88 34 0
-88 -34 0
133 20 0
-133 -20 0
14 115 0
-14 -115 0
38 123 0
-38 -123 0
88 64 0
-88 -64 0
56 113 0
-56 -113 0
64 78 0
-64 -78 0
105 60 0
-105 -60 0
78 111 0
-78 -111 0
107 53 0
-107 -53 0
43 36 0
-43 -36 0
3 30 0
-3 -30 0
25 40 0
-25 -40 0
133 4 0
-133 -4 0
